Minimize
  - 4 y_0 - 12 y_1 - 12 y_2 - 15 y_3 - 11 y_4 - 9 y_5 - 12 y_6 - 17 y_7
   - 16 y_8 - 21 y_9 - 7 y_10 - 14 y_11 - 14 y_12 - 5 y_13 - 10 y_14
   - 11 y_15 - 17 y_16 - 9 y_17 - 6 y_18 - 8 y_19 - 19 y_20 - 14 y_21
   - 14 y_22 - 8 y_23 - 15 y_24 - 13 y_25 - 13 y_26 - 19 y_27 - 13 y_28
   - 12 y_29 - 18 y_30 - 14 y_31 - 13 y_32 - 11 y_33 - 7 y_34 - 8 y_35
   - 12 y_36 - 15 y_37 - 5 y_38 - 18 y_39 - 22 y_40 - 16 y_41 - 15 y_42
   - 16 y_43 - 17 y_45 - 14 y_46 - 14 y_47 - 12 y_48 - 16 y_49
   + 633 Constant
Subject To
 c_0: y_38 = 1
 c_1_0: y_0 + y_13 + y_18 >= 1
 c_1_1: y_1 + y_6 + y_32 + y_47 >= 1
 c_1_2: y_2 + y_4 + y_25 + y_26 + y_28 + y_29 + y_48 >= 1
 c_1_3: y_3 + y_8 + y_11 + y_15 + y_22 + y_24 + y_36 + y_37 + y_41 + y_45
   + y_46 >= 1
 c_1_4: y_2 + y_4 + y_5 + y_15 + y_17 + y_21 + y_28 + y_29 + y_35 + y_36
   + y_48 >= 1
 c_1_5: y_4 + y_5 + y_10 + y_14 + y_15 + y_17 + y_19 + y_34 + y_35 + y_36
   + y_48 >= 1
 c_1_6: y_1 + y_6 + y_12 + y_14 + y_32 + y_33 + y_42 + y_47 >= 1
 c_1_7: y_7 + y_28 + y_30 + y_39 + y_49 >= 1
 c_1_8: y_3 + y_8 + y_16 + y_21 + y_22 + y_37 + y_41 + y_45 + y_46 >= 1
 c_1_9: y_9 + y_20 + y_40 + y_45 >= 1
 c_1_10: y_5 + y_10 + y_13 + y_14 + y_17 + y_19 + y_34 + y_35 + y_38 >= 1
 c_1_11: y_3 + y_11 + y_12 + y_22 + y_24 + y_33 + y_36 + y_37 + y_43 + y_45
   + y_46 >= 1
 c_1_12: y_6 + y_11 + y_12 + y_24 + y_32 + y_33 + y_42 + y_43 + y_47 >= 1
 c_1_13: y_0 + y_10 + y_13 + y_17 + y_18 + y_19 + y_34 + y_35 + y_38 >= 1
 c_1_14: y_5 + y_6 + y_10 + y_14 + y_17 + y_19 + y_32 + y_33 + y_34 + y_35
   + y_36 >= 1
 c_1_15: y_3 + y_4 + y_5 + y_15 + y_17 + y_22 + y_35 + y_36 + y_37 + y_46
   + y_48 >= 1
 c_1_16: y_8 + y_16 + y_21 + y_28 + y_30 + y_39 + y_41 >= 1
 c_1_17: y_4 + y_5 + y_10 + y_13 + y_14 + y_15 + y_17 + y_19 + y_34 + y_35
   + y_36 + y_48 >= 1
 c_1_18: y_0 + y_13 + y_18 + y_23 >= 1
 c_1_19: y_5 + y_10 + y_13 + y_14 + y_17 + y_19 + y_33 + y_34 + y_35 + y_38
   >= 1
 c_1_20: y_9 + y_20 + y_27 + y_45 >= 1
 c_1_21: y_4 + y_8 + y_16 + y_21 + y_28 + y_29 + y_41 + y_48 >= 1
 c_1_22: y_3 + y_8 + y_11 + y_15 + y_22 + y_24 + y_36 + y_37 + y_45 + y_46
   >= 1
 c_1_23: y_18 + y_23 >= 1
 c_1_24: y_3 + y_11 + y_12 + y_22 + y_24 + y_27 + y_36 + y_37 + y_42 + y_43
   + y_45 + y_46 >= 1
 c_1_25: y_2 + y_25 + y_26 + y_28 + y_29 + y_31 + y_49 >= 1
 c_1_26: y_2 + y_25 + y_26 + y_28 + y_29 + y_31 + y_49 >= 1
 c_1_27: y_20 + y_24 + y_27 + y_43 + y_45 >= 1
 c_1_28: y_2 + y_4 + y_7 + y_16 + y_21 + y_25 + y_26 + y_28 + y_29 + y_48
   + y_49 >= 1
 c_1_29: y_2 + y_4 + y_21 + y_25 + y_26 + y_28 + y_29 + y_48 >= 1
 c_1_30: y_7 + y_16 + y_30 + y_39 + y_41 >= 1
 c_1_31: y_25 + y_26 + y_31 >= 1
 c_1_32: y_1 + y_6 + y_12 + y_14 + y_32 + y_33 + y_42 + y_43 + y_47 >= 1
 c_1_33: y_6 + y_11 + y_12 + y_14 + y_19 + y_32 + y_33 + y_36 + y_42 >= 1
 c_1_34: y_5 + y_10 + y_13 + y_14 + y_17 + y_19 + y_34 + y_35 + y_38 >= 1
 c_1_35: y_4 + y_5 + y_10 + y_13 + y_14 + y_15 + y_17 + y_19 + y_34 + y_35
   + y_36 + y_48 >= 1
 c_1_36: y_3 + y_4 + y_5 + y_11 + y_14 + y_15 + y_17 + y_22 + y_24 + y_33
   + y_35 + y_36 + y_37 + y_46 >= 1
 c_1_37: y_3 + y_8 + y_11 + y_15 + y_22 + y_24 + y_36 + y_37 + y_41 + y_45
   + y_46 >= 1
 c_1_38: y_10 + y_13 + y_19 + y_34 + y_38 >= 1
 c_1_39: y_7 + y_16 + y_30 + y_39 + y_49 >= 1
 c_1_40: y_9 + y_40 >= 1
 c_1_41: y_3 + y_8 + y_16 + y_21 + y_30 + y_37 + y_41 >= 1
 c_1_42: y_6 + y_12 + y_24 + y_32 + y_33 + y_42 + y_43 + y_47 >= 1
 c_1_43: y_11 + y_12 + y_24 + y_27 + y_32 + y_42 + y_43 >= 1
 c_1_44: y_44 >= 1
 c_1_45: y_3 + y_8 + y_9 + y_11 + y_20 + y_22 + y_24 + y_27 + y_37 + y_45
   + y_46 >= 1
 c_1_46: y_3 + y_8 + y_11 + y_15 + y_22 + y_24 + y_36 + y_37 + y_45 + y_46
   >= 1
 c_1_47: y_1 + y_6 + y_12 + y_32 + y_42 + y_47 >= 1
 c_1_48: y_2 + y_4 + y_5 + y_15 + y_17 + y_21 + y_28 + y_29 + y_35 + y_48
   >= 1
 c_1_49: y_7 + y_25 + y_26 + y_28 + y_39 + y_49 >= 1
Bounds
 Constant = 1
Binaries
 y_0 y_1 y_2 y_3 y_4 y_5 y_6 y_7 y_8 y_9 y_10 y_11 y_12 y_13 y_14 y_15 y_16
 y_17 y_18 y_19 y_20 y_21 y_22 y_23 y_24 y_25 y_26 y_27 y_28 y_29 y_30 y_31
 y_32 y_33 y_34 y_35 y_36 y_37 y_38 y_39 y_40 y_41 y_42 y_43 y_44 y_45 y_46
 y_47 y_48 y_49
End
